Normalized Data/p03_11_normalized_splitx10_0.vrp
NAME:p03_11_NORMALIZED_splitx10_
BEST_KNOWN: 0
COMMENT: 0
DIMENSION: 416
CAPACITY: 1000
EDGE_WEIGHT_FORMAT: FUNCTION
EDGE_WEIGHT_TYPE: EXACT_2D
NODE_COORD_SECTION
1 0.00000 0.00000
2 -15 21
3 -15 21
4 14 -18
5 14 -18
6 14 -18
7 44 42
8 44 42
9 44 42
10 44 42
11 44 42
12 44 42
13 -50 -7
14 -50 -7
15 -50 -7
16 -45 7
17 -45 7
18 -45 7
19 -45 7
20 -45 7
21 -45 7
22 28 -25
23 28 -25
24 28 -25
25 28 -25
26 28 -25
27 14 36
28 14 36
29 14 36
30 14 36
31 14 36
32 14 36
33 -29 49
34 -29 49
35 -29 49
36 -21 25
37 -21 25
38 -21 25
39 -21 25
40 -21 25
41 0 -19
42 0 -19
43 0 -19
44 0 -19
45 0 -19
46 24 -39
47 24 -39
48 24 -39
49 -14 -37
50 -14 -37
51 -14 -37
52 -14 -37
53 -14 -37
54 2 42
55 2 42
56 2 42
57 2 42
58 11 4
59 11 4
60 11 4
61 43 -49
62 43 -49
63 43 -49
64 43 -49
65 43 -49
66 43 -49
67 38 -35
68 38 -35
69 38 -35
70 38 -35
71 38 -35
72 48 16
73 48 16
74 48 16
75 48 16
76 48 16
77 -20 27
78 -20 27
79 38 -45
80 38 -45
81 38 -45
82 38 -45
83 38 -45
84 38 -45
85 -31 31
86 -31 31
87 -31 31
88 -31 31
89 -32 -36
90 -32 -36
91 -32 -36
92 -31 -31
93 -31 -31
94 -31 -31
95 -31 -31
96 36 -39
97 36 -39
98 36 -39
99 36 -39
100 36 -39
101 36 -39
102 44 29
103 44 29
104 44 29
105 -33 40
106 -33 40
107 42 -20
108 42 -20
109 42 -20
110 42 -20
111 -42 21
112 -24 43
113 -24 43
114 -24 43
115 39 39
116 39 39
117 39 39
118 -22 18
119 -22 18
120 -22 18
121 -22 18
122 -29 -23
123 -29 -23
124 -43 -9
125 -43 -9
126 -43 -9
127 -43 -9
128 -43 -9
129 -8 -50
130 -8 -50
131 25 -19
132 25 -19
133 25 -19
134 25 -19
135 25 -19
136 -23 43
137 -23 43
138 -23 43
139 -23 43
140 -23 43
141 16 47
142 16 47
143 16 47
144 16 47
145 14 22
146 14 22
147 14 22
148 14 22
149 14 22
150 14 22
151 -18 43
152 -18 43
153 -18 43
154 -18 43
155 -18 43
156 -18 43
157 -1 -31
158 -1 -31
159 -1 -31
160 -1 -31
161 -1 -31
162 -1 -31
163 -21 25
164 -21 25
165 -21 25
166 24 17
167 24 17
168 24 17
169 29 -45
170 29 -45
171 -39 -24
172 -39 -24
173 -39 -24
174 -39 -24
175 30 25
176 30 25
177 30 25
178 30 25
179 30 25
180 30 25
181 30 25
182 10 -34
183 10 -34
184 10 -34
185 10 -34
186 37 34
187 37 34
188 37 34
189 37 34
190 37 34
191 37 34
192 30 19
193 30 19
194 30 19
195 9 42
196 9 42
197 31 -37
198 31 -37
199 31 -37
200 -42 -3
201 -42 -3
202 -42 -3
203 -42 -3
204 -42 -3
205 48 -26
206 48 -26
207 48 -26
208 48 -26
209 -3 27
210 -3 27
211 -3 27
212 -3 27
213 -3 27
214 -3 27
215 -3 27
216 20 -5
217 20 -5
218 20 -5
219 39 -4
220 39 -4
221 -23 32
222 -23 32
223 -23 32
224 6 10
225 6 10
226 24 42
227 24 42
228 24 42
229 24 42
230 -24 -11
231 -24 -11
232 -24 -11
233 -24 -11
234 22 -28
235 22 -28
236 22 -28
237 22 -28
238 22 -28
239 22 -28
240 22 -28
241 -23 -47
242 -23 -47
243 -23 -47
244 -23 -47
245 -23 -47
246 -23 -47
247 -47 -32
248 -47 -32
249 -47 -32
250 -37 -31
251 -37 -31
252 -37 -31
253 30 39
254 30 39
255 30 39
256 30 39
257 30 39
258 24 37
259 24 37
260 24 37
261 24 37
262 24 37
263 24 37
264 -48 46
265 -48 46
266 -48 46
267 16 -14
268 16 -14
269 28 -5
270 28 -5
271 28 -5
272 28 -5
273 28 -5
274 28 -5
275 -43 -5
276 -43 -5
277 -43 -5
278 37 35
279 37 35
280 37 35
281 37 35
282 -10 -22
283 -10 -22
284 -10 -22
285 -10 -22
286 -10 -22
287 -10 -22
288 20 -11
289 20 -11
290 20 -11
291 20 -11
292 -38 -48
293 -38 -48
294 -38 -48
295 -38 -48
296 17 -27
297 17 -27
298 17 -27
299 -10 -36
300 -10 -36
301 -10 -36
302 -10 -36
303 -10 -36
304 -10 -36
305 5 -11
306 5 -11
307 5 -11
308 5 -11
309 5 -11
310 5 -11
311 -43 -35
312 -43 -35
313 -43 -35
314 -43 -35
315 -43 -35
316 -43 -35
317 -8 48
318 -8 48
319 -8 48
320 -8 48
321 4 -10
322 4 -10
323 4 -10
324 4 -10
325 -38 -30
326 -38 -30
327 -38 -30
328 -38 -30
329 -30 47
330 -30 47
331 -30 47
332 -30 47
333 20 18
334 20 18
335 20 18
336 11 25
337 11 25
338 11 25
339 -50 18
340 -50 18
341 -50 18
342 -47 -47
343 -47 -47
344 14 -41
345 14 -41
346 14 -41
347 15 -6
348 15 -6
349 15 -6
350 15 -6
351 15 -6
352 -14 9
353 -14 9
354 -14 9
355 -14 9
356 -14 9
357 -14 9
358 -36 21
359 -36 21
360 -36 21
361 -36 21
362 -7 11
363 -7 11
364 -7 11
365 43 34
366 43 34
367 43 34
368 43 34
369 43 34
370 43 34
371 43 34
372 40 -17
373 40 -17
374 40 -17
375 40 -17
376 -4 44
377 -4 44
378 -4 44
379 -4 44
380 -4 44
381 31 -43
382 31 -43
383 31 -43
384 22 -39
385 22 -39
386 22 -39
387 22 -39
388 22 -39
389 22 -39
390 22 -39
391 -19 -31
392 -19 -31
393 -19 -31
394 -19 -31
395 -19 -31
396 -19 -31
397 -35 -29
398 -11 42
399 -11 42
400 -34 -11
401 -34 -11
402 -34 -11
403 -34 -11
404 -34 -11
405 -34 -11
406 -29 -37
407 -29 -37
408 -29 -37
409 -29 -37
410 -29 -37
411 28 40
412 28 40
413 28 40
414 28 40
415 28 40
416 28 40
DEMAND_SECTION
1 0
2 100
3 50
4 200
5 10
6 10
7 200
8 200
9 10
10 10
11 10
12 10
13 200
14 10
15 10
16 200
17 200
18 10
19 10
20 10
21 10
22 200
23 200
24 10
25 10
26 10
27 100
28 50
29 10
30 10
31 10
32 10
33 200
34 200
35 10
36 200
37 100
38 50
39 10
40 10
41 200
42 10
43 10
44 10
45 10
46 200
47 200
48 10
49 200
50 200
51 10
52 10
53 10
54 200
55 100
56 50
57 10
58 200
59 200
60 50
61 200
62 200
63 10
64 10
65 10
66 10
67 200
68 50
69 10
70 10
71 10
72 200
73 100
74 50
75 10
76 10
77 200
78 50
79 200
80 100
81 50
82 10
83 10
84 10
85 200
86 200
87 10
88 10
89 100
90 50
91 10
92 200
93 100
94 10
95 10
96 200
97 200
98 50
99 10
100 10
101 10
102 200
103 100
104 50
105 200
106 10
107 200
108 10
109 10
110 10
111 200
112 200
113 200
114 10
115 200
116 200
117 10
118 200
119 100
120 10
121 10
122 100
123 50
124 200
125 200
126 10
127 10
128 10
129 200
130 10
131 200
132 100
133 10
134 10
135 10
136 200
137 200
138 10
139 10
140 10
141 200
142 100
143 10
144 10
145 200
146 100
147 10
148 10
149 10
150 10
151 200
152 200
153 10
154 10
155 10
156 10
157 200
158 200
159 10
160 10
161 10
162 10
163 200
164 200
165 100
166 200
167 200
168 10
169 200
170 100
171 200
172 200
173 10
174 10
175 200
176 200
177 50
178 10
179 10
180 10
181 10
182 100
183 50
184 10
185 10
186 200
187 200
188 50
189 10
190 10
191 10
192 200
193 200
194 10
195 200
196 10
197 200
198 200
199 50
200 200
201 50
202 10
203 10
204 10
205 200
206 100
207 10
208 10
209 200
210 100
211 50
212 10
213 10
214 10
215 10
216 200
217 200
218 50
219 200
220 10
221 200
222 100
223 50
224 200
225 50
226 200
227 200
228 50
229 10
230 200
231 100
232 50
233 10
234 200
235 100
236 50
237 10
238 10
239 10
240 10
241 200
242 200
243 50
244 10
245 10
246 10
247 200
248 200
249 100
250 200
251 200
252 10
253 200
254 100
255 10
256 10
257 10
258 200
259 100
260 50
261 10
262 10
263 10
264 200
265 100
266 50
267 200
268 200
269 200
270 100
271 50
272 10
273 10
274 10
275 100
276 50
277 10
278 200
279 50
280 10
281 10
282 200
283 50
284 10
285 10
286 10
287 10
288 200
289 200
290 50
291 10
292 200
293 200
294 50
295 10
296 100
297 50
298 10
299 200
300 100
301 10
302 10
303 10
304 10
305 200
306 100
307 50
308 10
309 10
310 10
311 200
312 100
313 10
314 10
315 10
316 10
317 100
318 10
319 10
320 10
321 200
322 100
323 10
324 10
325 200
326 100
327 10
328 10
329 200
330 200
331 10
332 10
333 200
334 200
335 50
336 200
337 200
338 50
339 200
340 10
341 10
342 200
343 50
344 200
345 50
346 10
347 200
348 100
349 50
350 10
351 10
352 200
353 100
354 50
355 10
356 10
357 10
358 100
359 10
360 10
361 10
362 100
363 50
364 10
365 200
366 100
367 50
368 10
369 10
370 10
371 10
372 200
373 100
374 50
375 10
376 100
377 50
378 10
379 10
380 10
381 200
382 200
383 10
384 200
385 100
386 50
387 10
388 10
389 10
390 10
391 200
392 200
393 10
394 10
395 10
396 10
397 200
398 200
399 200
400 200
401 100
402 50
403 10
404 10
405 10
406 200
407 200
408 10
409 10
410 10
411 200
412 100
413 10
414 10
415 10
416 10
DEPOT_SECTION
1
-1
EOF