Normalized Data/p03_11_normalized_splitx10_0.sol
415 -1 2 76 77 163 37 35 36 -3 267 266 287 288 -4 5 238 235 239 234 236 46 47 45 383 385 388 389 387 386 384 -18 16 20 19 15 17 12 14 13 275 276 202 203 200 201 199 -25 23 24 68 66 69 70 67 99 97 98 100 95 96 196 -27 28 29 31 143 140 142 141 225 227 226 228 258 261 147 149 148 -30 26 195 194 56 55 54 53 209 212 208 -39 38 104 105 330 328 329 331 220 222 221 -40 44 41 42 303 299 302 301 300 298 51 48 50 52 49 -43 159 156 160 158 157 161 343 344 345 181 184 183 182 323 322 321 -58 57 165 333 332 -59 191 192 193 174 175 179 180 178 177 176 -61 63 65 60 64 62 81 80 78 83 82 79 296 297 295 -72 74 75 71 73 103 102 101 370 368 366 364 -86 87 85 84 360 358 357 359 110 340 339 338 -89 294 293 292 291 341 342 324 -90 88 409 407 406 408 405 390 393 395 392 391 394 -92 94 91 93 250 249 251 396 -121 122 172 170 171 173 230 231 229 232 -128 129 245 242 243 241 244 240 281 283 285 282 284 286 -137 139 135 136 138 111 113 112 361 363 362 -151 397 398 318 316 317 319 376 377 378 379 375 213 210 211 214 -154 153 150 155 152 32 33 34 265 263 264 -162 164 120 117 118 119 354 356 351 352 353 355 -166 167 188 185 186 187 280 279 278 277 334 -169 168 382 381 380 197 198 -189 190 114 116 115 6 9 8 11 7 10 369 365 367 -205 207 206 204 108 106 107 109 372 373 374 371 217 -216 215 268 269 273 270 272 271 218 219 -223 145 144 146 335 336 337 -224 260 259 262 257 413 415 412 410 414 411 256 253 252 255 254 -237 233 22 21 131 130 132 133 134 290 289 -248 246 247 311 312 315 310 313 314 326 327 325 -274 126 127 124 123 125 401 404 400 403 399 402 -320 309 306 305 308 304 307 346 348 350 349 347 0 





OBJ=
3440.032
BEST_KNOWN=
0.000